80680
1 0 1 0 1 1 1 1 1 0 1 1 1 0 0 0 0 0 0 1 1 1 0 1 1 0 0 0 1 0 
28 0 5 28 12 7 0 10 8 28 2 0 24 4 19 12 20 6 21 20 12 24 24 28 11 21 10 5 20 5 19 0 23 23 24 11 28 2 21 11 4 8 12 4 28 19 23 8 20 20 28 21 8 10 20 4 11 2 11 2 10 20 23 5 0 21 6 23 28 4 19 28 5 5 23 8 11 4 24 24 23 4 23 2 0 8 11 5 19 5 10 6 11 21 28 10 0 6 0 12 6 21 5 11 21 2 8 6 19 10 19 5 4 12 21 8 6 11 20 8 11 2 10 12 20 2 24 6 21 19 21 0 6 20 23 12 8 6 2 23 19 20 11 10 28 2 24 0 21 24 24 24 28 0 19 23 2 21 2 20 2 11 19 7 20 23 5 23 12 5 20 10 12 12 28 21 10 4 5 8 5 2 2 19 12 2 6 4 4 10 0 10 20 19 7 4 0 10 8 0 
